60
1 0 3
2 0 1
2 1 2
3 0 4
3 1 4
3 2 4
4 0 4
4 1 5
4 2 1
4 3 3
5 0 5
5 1 1
5 2 3
5 3 2
5 4 5
6 0 5
6 1 1
6 2 5
6 3 4
6 4 3
6 5 4
7 0 1
7 1 5
7 2 3
7 3 4
7 4 5
7 5 1
7 6 3
8 0 3
8 1 4
8 2 1
8 3 5
8 4 2
8 5 3
8 6 1
8 7 4
9 0 3
9 1 5
9 2 5
9 3 5
9 4 1
9 5 4
9 6 2
9 7 2
9 8 2
10 0 4
10 1 5
10 2 5
10 3 2
10 4 1
10 5 5
10 6 3
10 7 2
10 8 5
10 9 1
11 0 4
11 1 2
11 2 4
11 3 4
11 4 5
11 5 2
11 6 4
11 7 5
11 8 4
11 9 5
11 10 4
12 0 5
12 1 3
12 2 1
12 3 5
12 4 3
12 5 3
12 6 2
12 7 1
12 8 1
12 9 3
12 10 5
12 11 4
13 0 1
13 1 1
13 2 2
13 3 2
13 4 4
13 5 1
13 6 1
13 7 2
13 8 3
13 9 2
13 10 1
13 11 3
13 12 2
14 0 4
14 1 5
14 2 1
14 3 3
14 4 1
14 5 5
14 6 1
14 7 1
14 8 3
14 9 5
14 10 4
14 11 4
14 12 3
14 13 5
15 0 2
15 1 4
15 2 1
15 3 5
15 4 4
15 5 5
15 6 1
15 7 1
15 8 2
15 9 1
15 10 1
15 11 5
15 12 2
15 13 2
15 14 1
16 0 2
16 1 3
16 2 1
16 3 5
16 4 4
16 5 2
16 6 4
16 7 5
16 8 1
16 9 2
16 10 3
16 11 1
16 12 2
16 13 4
16 14 5
16 15 2
17 0 1
17 1 5
17 2 4
17 3 3
17 4 5
17 5 2
17 6 3
17 7 1
17 8 3
17 9 2
17 10 4
17 11 4
17 12 5
17 13 1
17 14 1
17 15 2
17 16 3
18 0 3
18 1 4
18 2 1
18 3 1
18 4 1
18 5 1
18 6 2
18 7 4
18 8 2
18 9 5
18 10 4
18 11 5
18 12 3
18 13 1
18 14 4
18 15 3
18 16 3
18 17 3
19 0 2
19 1 2
19 2 5
19 3 1
19 4 2
19 5 3
19 6 4
19 7 5
19 8 2
19 9 4
19 10 1
19 11 1
19 12 5
19 13 3
19 14 4
19 15 3
19 16 5
19 17 1
19 18 4
20 0 5
20 1 3
20 2 4
20 3 3
20 4 2
20 5 5
20 6 2
20 7 4
20 8 4
20 9 1
20 10 4
20 11 5
20 12 2
20 13 2
20 14 1
20 15 3
20 16 1
20 17 5
20 18 5
20 19 3
21 0 5
21 1 3
21 2 2
21 3 4
21 4 5
21 5 5
21 6 4
21 7 3
21 8 4
21 9 2
21 10 2
21 11 4
21 12 5
21 13 5
21 14 5
21 15 3
21 16 3
21 17 2
21 18 2
21 19 5
21 20 3
22 0 1
22 1 1
22 2 3
22 3 2
22 4 2
22 5 5
22 6 3
22 7 3
22 8 3
22 9 2
22 10 5
22 11 4
22 12 1
22 13 4
22 14 1
22 15 2
22 16 1
22 17 4
22 18 5
22 19 3
22 20 3
22 21 5
23 0 1
23 1 5
23 2 1
23 3 5
23 4 3
23 5 3
23 6 1
23 7 2
23 8 2
23 9 4
23 10 4
23 11 2
23 12 4
23 13 5
23 14 4
23 15 4
23 16 2
23 17 5
23 18 1
23 19 4
23 20 1
23 21 1
23 22 3
24 0 4
24 1 3
24 2 2
24 3 5
24 4 1
24 5 1
24 6 5
24 7 3
24 8 3
24 9 2
24 10 2
24 11 4
24 12 2
24 13 3
24 14 4
24 15 4
24 16 3
24 17 3
24 18 4
24 19 4
24 20 4
24 21 1
24 22 3
24 23 3
25 0 2
25 1 2
25 2 5
25 3 1
25 4 5
25 5 3
25 6 4
25 7 1
25 8 4
25 9 4
25 10 5
25 11 2
25 12 2
25 13 5
25 14 1
25 15 3
25 16 5
25 17 5
25 18 3
25 19 2
25 20 1
25 21 2
25 22 5
25 23 3
25 24 5
26 0 2
26 1 5
26 2 4
26 3 2
26 4 3
26 5 1
26 6 2
26 7 3
26 8 3
26 9 1
26 10 3
26 11 4
26 12 1
26 13 1
26 14 3
26 15 2
26 16 2
26 17 3
26 18 1
26 19 1
26 20 5
26 21 5
26 22 5
26 23 2
26 24 5
26 25 2
27 0 2
27 1 2
27 2 5
27 3 2
27 4 4
27 5 1
27 6 3
27 7 2
27 8 3
27 9 5
27 10 2
27 11 2
27 12 1
27 13 3
27 14 2
27 15 1
27 16 4
27 17 4
27 18 1
27 19 3
27 20 1
27 21 3
27 22 2
27 23 5
27 24 1
27 25 1
27 26 5
28 0 5
28 1 5
28 2 5
28 3 4
28 4 2
28 5 1
28 6 1
28 7 3
28 8 1
28 9 3
28 10 5
28 11 5
28 12 5
28 13 4
28 14 4
28 15 2
28 16 5
28 17 2
28 18 5
28 19 4
28 20 2
28 21 5
28 22 1
28 23 2
28 24 2
28 25 4
28 26 4
28 27 2
29 0 5
29 1 3
29 2 1
29 3 1
29 4 2
29 5 3
29 6 1
29 7 1
29 8 5
29 9 5
29 10 2
29 11 1
29 12 4
29 13 4
29 14 1
29 15 5
29 16 1
29 17 4
29 18 2
29 19 5
29 20 3
29 21 4
29 22 1
29 23 1
29 24 1
29 25 3
29 26 2
29 27 1
29 28 5
30 0 3
30 1 5
30 2 1
30 3 1
30 4 1
30 5 1
30 6 5
30 7 4
30 8 1
30 9 1
30 10 5
30 11 3
30 12 2
30 13 5
30 14 3
30 15 3
30 16 4
30 17 1
30 18 4
30 19 2
30 20 3
30 21 4
30 22 5
30 23 3
30 24 1
30 25 2
30 26 2
30 27 3
30 28 4
30 29 1
31 0 5
31 1 3
31 2 2
31 3 2
31 4 1
31 5 4
31 6 3
31 7 2
31 8 5
31 9 3
31 10 4
31 11 1
31 12 1
31 13 2
31 14 2
31 15 3
31 16 1
31 17 4
31 18 2
31 19 5
31 20 1
31 21 1
31 22 5
31 23 3
31 24 5
31 25 4
31 26 5
31 27 3
31 28 1
31 29 5
31 30 4
32 0 5
32 1 5
32 2 5
32 3 3
32 4 2
32 5 4
32 6 3
32 7 1
32 8 5
32 9 4
32 10 1
32 11 3
32 12 5
32 13 4
32 14 4
32 15 5
32 16 3
32 17 3
32 18 3
32 19 1
32 20 4
32 21 2
32 22 3
32 23 5
32 24 5
32 25 1
32 26 5
32 27 4
32 28 2
32 29 4
32 30 2
32 31 5
33 0 1
33 1 5
33 2 3
33 3 3
33 4 5
33 5 1
33 6 3
33 7 1
33 8 5
33 9 5
33 10 2
33 11 1
33 12 5
33 13 4
33 14 3
33 15 4
33 16 1
33 17 1
33 18 4
33 19 3
33 20 2
33 21 3
33 22 5
33 23 2
33 24 4
33 25 5
33 26 2
33 27 5
33 28 4
33 29 4
33 30 3
33 31 5
33 32 5
34 0 5
34 1 4
34 2 2
34 3 4
34 4 5
34 5 3
34 6 4
34 7 4
34 8 5
34 9 1
34 10 2
34 11 3
34 12 3
34 13 5
34 14 1
34 15 1
34 16 5
34 17 4
34 18 3
34 19 5
34 20 1
34 21 2
34 22 5
34 23 1
34 24 2
34 25 2
34 26 1
34 27 1
34 28 3
34 29 5
34 30 1
34 31 1
34 32 5
34 33 4
35 0 2
35 1 1
35 2 3
35 3 4
35 4 5
35 5 1
35 6 4
35 7 5
35 8 3
35 9 2
35 10 4
35 11 1
35 12 3
35 13 1
35 14 1
35 15 3
35 16 3
35 17 1
35 18 5
35 19 4
35 20 3
35 21 4
35 22 1
35 23 2
35 24 4
35 25 1
35 26 4
35 27 4
35 28 1
35 29 5
35 30 1
35 31 4
35 32 1
35 33 1
35 34 1
36 0 2
36 1 2
36 2 4
36 3 4
36 4 1
36 5 2
36 6 2
36 7 1
36 8 3
36 9 3
36 10 4
36 11 2
36 12 1
36 13 1
36 14 4
36 15 4
36 16 3
36 17 3
36 18 4
36 19 4
36 20 5
36 21 4
36 22 1
36 23 5
36 24 1
36 25 1
36 26 3
36 27 4
36 28 1
36 29 4
36 30 5
36 31 3
36 32 1
36 33 1
36 34 2
36 35 4
37 0 5
37 1 4
37 2 3
37 3 3
37 4 3
37 5 1
37 6 5
37 7 1
37 8 5
37 9 3
37 10 5
37 11 1
37 12 1
37 13 3
37 14 5
37 15 1
37 16 4
37 17 5
37 18 5
37 19 2
37 20 1
37 21 1
37 22 4
37 23 2
37 24 2
37 25 4
37 26 2
37 27 1
37 28 3
37 29 5
37 30 4
37 31 1
37 32 5
37 33 2
37 34 4
37 35 4
37 36 3
38 0 5
38 1 3
38 2 1
38 3 2
38 4 4
38 5 3
38 6 5
38 7 5
38 8 5
38 9 4
38 10 3
38 11 5
38 12 4
38 13 5
38 14 3
38 15 5
38 16 5
38 17 2
38 18 4
38 19 4
38 20 1
38 21 2
38 22 2
38 23 4
38 24 4
38 25 2
38 26 5
38 27 3
38 28 3
38 29 3
38 30 1
38 31 2
38 32 5
38 33 5
38 34 3
38 35 4
38 36 3
38 37 3
39 0 5
39 1 2
39 2 1
39 3 3
39 4 5
39 5 4
39 6 1
39 7 3
39 8 4
39 9 3
39 10 1
39 11 5
39 12 2
39 13 3
39 14 4
39 15 4
39 16 2
39 17 4
39 18 1
39 19 1
39 20 5
39 21 3
39 22 1
39 23 2
39 24 5
39 25 2
39 26 5
39 27 3
39 28 3
39 29 2
39 30 1
39 31 4
39 32 5
39 33 3
39 34 5
39 35 3
39 36 1
39 37 5
39 38 3
40 0 3
40 1 3
40 2 3
40 3 4
40 4 2
40 5 3
40 6 4
40 7 4
40 8 1
40 9 5
40 10 3
40 11 2
40 12 5
40 13 4
40 14 4
40 15 1
40 16 5
40 17 3
40 18 3
40 19 5
40 20 2
40 21 1
40 22 1
40 23 3
40 24 5
40 25 5
40 26 4
40 27 4
40 28 2
40 29 2
40 30 4
40 31 1
40 32 5
40 33 4
40 34 2
40 35 3
40 36 2
40 37 1
40 38 1
40 39 5
41 0 2
41 1 1
41 2 1
41 3 1
41 4 2
41 5 3
41 6 1
41 7 4
41 8 3
41 9 4
41 10 4
41 11 1
41 12 3
41 13 3
41 14 2
41 15 5
41 16 2
41 17 3
41 18 3
41 19 1
41 20 1
41 21 3
41 22 1
41 23 1
41 24 3
41 25 2
41 26 5
41 27 4
41 28 5
41 29 4
41 30 4
41 31 4
41 32 3
41 33 2
41 34 4
41 35 2
41 36 4
41 37 5
41 38 3
41 39 5
41 40 2
42 0 5
42 1 5
42 2 3
42 3 2
42 4 5
42 5 3
42 6 3
42 7 4
42 8 1
42 9 5
42 10 1
42 11 5
42 12 1
42 13 1
42 14 1
42 15 2
42 16 2
42 17 4
42 18 5
42 19 2
42 20 1
42 21 2
42 22 3
42 23 3
42 24 4
42 25 3
42 26 2
42 27 3
42 28 1
42 29 2
42 30 4
42 31 5
42 32 3
42 33 3
42 34 4
42 35 5
42 36 3
42 37 2
42 38 1
42 39 3
42 40 2
42 41 1
43 0 5
43 1 5
43 2 5
43 3 1
43 4 3
43 5 5
43 6 4
43 7 2
43 8 4
43 9 5
43 10 3
43 11 5
43 12 2
43 13 5
43 14 2
43 15 1
43 16 2
43 17 4
43 18 3
43 19 3
43 20 1
43 21 4
43 22 5
43 23 2
43 24 3
43 25 4
43 26 5
43 27 5
43 28 2
43 29 3
43 30 2
43 31 4
43 32 5
43 33 2
43 34 5
43 35 1
43 36 4
43 37 5
43 38 4
43 39 1
43 40 1
43 41 4
43 42 2
44 0 1
44 1 1
44 2 4
44 3 3
44 4 1
44 5 4
44 6 5
44 7 5
44 8 1
44 9 1
44 10 3
44 11 4
44 12 4
44 13 5
44 14 4
44 15 5
44 16 3
44 17 1
44 18 4
44 19 4
44 20 1
44 21 3
44 22 4
44 23 3
44 24 3
44 25 4
44 26 2
44 27 5
44 28 5
44 29 2
44 30 2
44 31 3
44 32 3
44 33 5
44 34 3
44 35 1
44 36 4
44 37 2
44 38 5
44 39 4
44 40 1
44 41 2
44 42 2
44 43 2
45 0 1
45 1 4
45 2 3
45 3 3
45 4 3
45 5 3
45 6 3
45 7 1
45 8 4
45 9 3
45 10 2
45 11 5
45 12 2
45 13 5
45 14 4
45 15 4
45 16 2
45 17 1
45 18 1
45 19 3
45 20 4
45 21 4
45 22 3
45 23 3
45 24 4
45 25 1
45 26 5
45 27 2
45 28 5
45 29 3
45 30 3
45 31 1
45 32 2
45 33 4
45 34 5
45 35 4
45 36 5
45 37 2
45 38 1
45 39 2
45 40 2
45 41 3
45 42 1
45 43 3
45 44 5
46 0 3
46 1 3
46 2 2
46 3 5
46 4 3
46 5 4
46 6 1
46 7 2
46 8 3
46 9 5
46 10 1
46 11 2
46 12 1
46 13 2
46 14 1
46 15 5
46 16 2
46 17 3
46 18 5
46 19 3
46 20 3
46 21 4
46 22 2
46 23 2
46 24 1
46 25 2
46 26 3
46 27 4
46 28 5
46 29 2
46 30 3
46 31 1
46 32 1
46 33 4
46 34 1
46 35 3
46 36 2
46 37 4
46 38 5
46 39 1
46 40 1
46 41 2
46 42 2
46 43 3
46 44 3
46 45 1
47 0 5
47 1 2
47 2 4
47 3 1
47 4 3
47 5 4
47 6 4
47 7 1
47 8 1
47 9 1
47 10 5
47 11 5
47 12 2
47 13 5
47 14 3
47 15 1
47 16 1
47 17 5
47 18 5
47 19 5
47 20 2
47 21 3
47 22 4
47 23 2
47 24 1
47 25 2
47 26 4
47 27 3
47 28 1
47 29 4
47 30 1
47 31 3
47 32 1
47 33 3
47 34 1
47 35 4
47 36 5
47 37 5
47 38 2
47 39 1
47 40 4
47 41 2
47 42 5
47 43 4
47 44 3
47 45 5
47 46 1
48 0 3
48 1 5
48 2 2
48 3 1
48 4 2
48 5 1
48 6 4
48 7 4
48 8 4
48 9 1
48 10 4
48 11 2
48 12 2
48 13 1
48 14 3
48 15 1
48 16 4
48 17 5
48 18 5
48 19 1
48 20 5
48 21 2
48 22 5
48 23 1
48 24 1
48 25 1
48 26 2
48 27 3
48 28 5
48 29 3
48 30 2
48 31 1
48 32 3
48 33 2
48 34 3
48 35 5
48 36 3
48 37 1
48 38 2
48 39 1
48 40 4
48 41 2
48 42 2
48 43 4
48 44 1
48 45 5
48 46 4
48 47 4
49 0 4
49 1 4
49 2 2
49 3 2
49 4 5
49 5 5
49 6 5
49 7 5
49 8 5
49 9 5
49 10 4
49 11 1
49 12 4
49 13 3
49 14 4
49 15 2
49 16 3
49 17 3
49 18 3
49 19 1
49 20 2
49 21 2
49 22 2
49 23 3
49 24 2
49 25 5
49 26 1
49 27 2
49 28 4
49 29 5
49 30 3
49 31 3
49 32 4
49 33 1
49 34 2
49 35 1
49 36 4
49 37 2
49 38 5
49 39 4
49 40 2
49 41 2
49 42 1
49 43 4
49 44 5
49 45 1
49 46 2
49 47 1
49 48 5
50 0 3
50 1 1
50 2 4
50 3 5
50 4 1
50 5 3
50 6 3
50 7 2
50 8 4
50 9 4
50 10 4
50 11 2
50 12 5
50 13 4
50 14 2
50 15 2
50 16 2
50 17 5
50 18 2
50 19 5
50 20 1
50 21 2
50 22 3
50 23 2
50 24 1
50 25 1
50 26 3
50 27 2
50 28 4
50 29 4
50 30 2
50 31 1
50 32 1
50 33 2
50 34 4
50 35 4
50 36 2
50 37 2
50 38 2
50 39 5
50 40 2
50 41 2
50 42 1
50 43 5
50 44 3
50 45 3
50 46 5
50 47 3
50 48 1
50 49 5
51 0 3
51 1 4
51 2 5
51 3 5
51 4 1
51 5 1
51 6 4
51 7 3
51 8 1
51 9 3
51 10 4
51 11 3
51 12 3
51 13 3
51 14 3
51 15 2
51 16 1
51 17 4
51 18 4
51 19 3
51 20 3
51 21 3
51 22 1
51 23 1
51 24 2
51 25 5
51 26 2
51 27 4
51 28 3
51 29 5
51 30 5
51 31 5
51 32 2
51 33 3
51 34 3
51 35 4
51 36 5
51 37 1
51 38 1
51 39 3
51 40 4
51 41 5
51 42 1
51 43 5
51 44 5
51 45 1
51 46 4
51 47 4
51 48 3
51 49 3
51 50 2
52 0 5
52 1 1
52 2 2
52 3 1
52 4 1
52 5 4
52 6 3
52 7 3
52 8 5
52 9 3
52 10 5
52 11 4
52 12 2
52 13 4
52 14 5
52 15 2
52 16 5
52 17 2
52 18 1
52 19 3
52 20 5
52 21 5
52 22 5
52 23 4
52 24 2
52 25 5
52 26 5
52 27 4
52 28 2
52 29 4
52 30 2
52 31 3
52 32 1
52 33 3
52 34 2
52 35 5
52 36 4
52 37 5
52 38 5
52 39 1
52 40 4
52 41 2
52 42 1
52 43 3
52 44 4
52 45 4
52 46 3
52 47 3
52 48 1
52 49 5
52 50 5
52 51 5
53 0 4
53 1 4
53 2 1
53 3 5
53 4 4
53 5 1
53 6 2
53 7 4
53 8 4
53 9 3
53 10 4
53 11 5
53 12 3
53 13 1
53 14 4
53 15 3
53 16 4
53 17 1
53 18 5
53 19 2
53 20 2
53 21 1
53 22 3
53 23 4
53 24 1
53 25 5
53 26 1
53 27 3
53 28 4
53 29 5
53 30 5
53 31 2
53 32 1
53 33 4
53 34 4
53 35 5
53 36 1
53 37 4
53 38 4
53 39 5
53 40 4
53 41 4
53 42 3
53 43 3
53 44 2
53 45 2
53 46 3
53 47 2
53 48 3
53 49 4
53 50 3
53 51 1
53 52 3
54 0 4
54 1 2
54 2 5
54 3 2
54 4 1
54 5 5
54 6 4
54 7 4
54 8 2
54 9 2
54 10 2
54 11 2
54 12 3
54 13 2
54 14 4
54 15 1
54 16 3
54 17 2
54 18 1
54 19 5
54 20 1
54 21 1
54 22 4
54 23 2
54 24 5
54 25 2
54 26 4
54 27 4
54 28 2
54 29 2
54 30 4
54 31 1
54 32 2
54 33 4
54 34 5
54 35 4
54 36 5
54 37 3
54 38 1
54 39 2
54 40 4
54 41 4
54 42 1
54 43 3
54 44 3
54 45 5
54 46 1
54 47 4
54 48 3
54 49 5
54 50 3
54 51 2
54 52 2
54 53 4
55 0 2
55 1 5
55 2 4
55 3 4
55 4 3
55 5 5
55 6 2
55 7 3
55 8 5
55 9 5
55 10 4
55 11 4
55 12 1
55 13 1
55 14 3
55 15 5
55 16 5
55 17 3
55 18 2
55 19 1
55 20 3
55 21 1
55 22 5
55 23 3
55 24 1
55 25 1
55 26 2
55 27 5
55 28 2
55 29 3
55 30 4
55 31 4
55 32 3
55 33 4
55 34 2
55 35 5
55 36 5
55 37 1
55 38 3
55 39 5
55 40 1
55 41 1
55 42 4
55 43 1
55 44 1
55 45 4
55 46 5
55 47 3
55 48 3
55 49 4
55 50 2
55 51 4
55 52 2
55 53 5
55 54 5
56 0 3
56 1 4
56 2 5
56 3 1
56 4 3
56 5 2
56 6 3
56 7 1
56 8 3
56 9 2
56 10 5
56 11 1
56 12 2
56 13 2
56 14 2
56 15 1
56 16 2
56 17 3
56 18 2
56 19 1
56 20 4
56 21 3
56 22 4
56 23 1
56 24 2
56 25 5
56 26 5
56 27 5
56 28 1
56 29 1
56 30 3
56 31 1
56 32 5
56 33 5
56 34 3
56 35 3
56 36 1
56 37 2
56 38 3
56 39 2
56 40 2
56 41 5
56 42 4
56 43 5
56 44 2
56 45 3
56 46 2
56 47 3
56 48 1
56 49 3
56 50 3
56 51 4
56 52 5
56 53 4
56 54 2
56 55 2
57 0 1
57 1 5
57 2 3
57 3 1
57 4 5
57 5 5
57 6 3
57 7 4
57 8 2
57 9 4
57 10 1
57 11 1
57 12 4
57 13 4
57 14 3
57 15 2
57 16 1
57 17 2
57 18 3
57 19 3
57 20 4
57 21 1
57 22 4
57 23 4
57 24 2
57 25 1
57 26 5
57 27 4
57 28 1
57 29 4
57 30 4
57 31 4
57 32 3
57 33 4
57 34 2
57 35 3
57 36 5
57 37 3
57 38 3
57 39 4
57 40 2
57 41 1
57 42 4
57 43 3
57 44 1
57 45 4
57 46 2
57 47 3
57 48 5
57 49 3
57 50 5
57 51 1
57 52 4
57 53 1
57 54 4
57 55 5
57 56 4
58 0 4
58 1 5
58 2 4
58 3 2
58 4 3
58 5 5
58 6 3
58 7 3
58 8 5
58 9 4
58 10 5
58 11 4
58 12 3
58 13 4
58 14 2
58 15 5
58 16 4
58 17 2
58 18 3
58 19 5
58 20 2
58 21 2
58 22 3
58 23 3
58 24 5
58 25 2
58 26 1
58 27 4
58 28 3
58 29 4
58 30 2
58 31 5
58 32 3
58 33 1
58 34 5
58 35 3
58 36 3
58 37 5
58 38 5
58 39 2
58 40 4
58 41 3
58 42 2
58 43 4
58 44 5
58 45 1
58 46 3
58 47 3
58 48 5
58 49 5
58 50 1
58 51 5
58 52 1
58 53 5
58 54 2
58 55 1
58 56 1
58 57 2
59 0 5
59 1 4
59 2 3
59 3 5
59 4 2
59 5 4
59 6 3
59 7 1
59 8 3
59 9 3
59 10 4
59 11 3
59 12 5
59 13 3
59 14 2
59 15 1
59 16 2
59 17 1
59 18 1
59 19 1
59 20 2
59 21 1
59 22 3
59 23 4
59 24 1
59 25 4
59 26 4
59 27 4
59 28 4
59 29 3
59 30 3
59 31 4
59 32 1
59 33 1
59 34 5
59 35 3
59 36 3
59 37 4
59 38 1
59 39 4
59 40 2
59 41 3
59 42 1
59 43 2
59 44 1
59 45 3
59 46 2
59 47 1
59 48 1
59 49 1
59 50 1
59 51 5
59 52 2
59 53 1
59 54 4
59 55 5
59 56 1
59 57 4
59 58 2
